c Generated map
c Size: 8 * 8, weights in range: 1 to 10, walls: True, with ratio 0.05
c dim 8 of 9
c
p sp 64 100
c graph contains 64 nodes and 100 arcs
c
a 1 9 9
a 9 1 9
a 1 2 3
a 2 1 3
a 2 3 4
a 3 2 4
a 3 11 2
a 11 3 2
a 3 4 9
a 4 3 9
a 4 5 3
a 5 4 3
a 5 13 2
a 13 5 2
a 5 6 1
a 6 5 1
a 6 14 5
a 14 6 5
a 6 7 1
a 7 6 1
a 7 8 2
a 8 7 2
a 8 16 1
a 16 8 1
a 9 17 5
a 17 9 5
a 11 19 9
a 19 11 9
a 13 21 4
a 21 13 4
a 13 14 4
a 14 13 4
a 14 22 8
a 22 14 8
a 16 24 6
a 24 16 6
a 17 25 4
a 25 17 4
a 17 18 1
a 18 17 1
a 18 26 4
a 26 18 4
a 18 19 8
a 19 18 8
a 19 27 9
a 27 19 9
a 19 20 8
a 20 19 8
a 20 28 9
a 28 20 9
a 20 21 9
a 21 20 9
a 21 29 5
a 29 21 5
a 21 22 7
a 22 21 7
a 22 30 4
a 30 22 4
a 22 23 6
a 23 22 6
a 23 31 1
a 31 23 1
a 23 24 2
a 24 23 2
a 24 32 10
a 32 24 10
a 25 33 2
a 33 25 2
a 25 26 8
a 26 25 8
a 26 34 4
a 34 26 4
a 26 27 5
a 27 26 5
a 27 35 7
a 35 27 7
a 27 28 10
a 28 27 10
a 28 36 3
a 36 28 3
a 28 29 4
a 29 28 4
a 29 37 3
a 37 29 3
a 29 30 5
a 30 29 5
a 30 38 8
a 38 30 8
a 30 31 3
a 31 30 3
a 31 39 4
a 39 31 4
a 31 32 6
a 32 31 6
a 32 40 10
a 40 32 10
a 33 41 6
a 41 33 6
a 33 34 6
a 34 33 6
a 34 42 3
a 42 34 3
a 34 35 7
a 35 34 7
a 35 43 9
a 43 35 9
a 35 36 6
a 36 35 6
a 36 44 1
a 44 36 1
a 36 37 6
a 37 36 6
a 37 45 6
a 45 37 6
a 37 38 2
a 38 37 2
a 38 46 10
a 46 38 10
a 38 39 4
a 39 38 4
a 39 47 9
a 47 39 9
a 39 40 4
a 40 39 4
a 40 48 7
a 48 40 7
a 41 49 7
a 49 41 7
a 41 42 6
a 42 41 6
a 42 50 1
a 50 42 1
a 42 43 2
a 43 42 2
a 43 51 1
a 51 43 1
a 43 44 7
a 44 43 7
a 44 52 4
a 52 44 4
a 44 45 2
a 45 44 2
a 45 53 10
a 53 45 10
a 45 46 5
a 46 45 5
a 46 54 10
a 54 46 10
a 46 47 10
a 47 46 10
a 47 55 1
a 55 47 1
a 47 48 10
a 48 47 10
a 48 56 9
a 56 48 9
a 49 57 3
a 57 49 3
a 49 50 3
a 50 49 3
a 50 58 9
a 58 50 9
a 50 51 10
a 51 50 10
a 51 59 10
a 59 51 10
a 51 52 10
a 52 51 10
a 52 60 3
a 60 52 3
a 52 53 8
a 53 52 8
a 53 61 3
a 61 53 3
a 53 54 8
a 54 53 8
a 54 62 10
a 62 54 10
a 54 55 7
a 55 54 7
a 55 63 5
a 63 55 5
a 55 56 10
a 56 55 10
a 56 64 1
a 64 56 1
a 57 58 10
a 58 57 10
a 58 59 8
a 59 58 8
a 59 60 1
a 60 59 1
a 60 61 3
a 61 60 3
a 61 62 10
a 62 61 10
a 62 63 5
a 63 62 5
a 63 64 9
a 64 63 9
